Route #1: 26 7 11 14 19 35 8
Route #2: 40 32 18 24 44 3 17
Route #3: 45 29 5 36 37 20 15 13 27
Route #4: 30 48 47 21 28 2
Route #5: 38 10 31 25 9 39 12
Route #6: 46 34 4
Route #7: 6 33 1 22 42 41 43 23 49 16
cost 559
